benchmark_instances/dzn_benchmark_instances/benchmark_instance_10-1.dzn
% Input: sequence of points
seq_points = [|2,1
              |5,1
              |8,1
              |2,2
              |6,2
              |3,3
              |5,3
              |6,3
              |7,3
              |8,3
              |1,4
              |5,4
              |7,4
              |8,4
              |1,5
              |3,5
              |5,5
              |6,5
              |7,5
              |8,5
              |2,6
              |3,6
              |4,6
              |6,6
              |2,7
              |3,7
              |8,8
              |9,8
              |3,9
              |4,9
              |6,9
              |7,9
              |3,0
              |8,0
              |10,0
              |10,2
              |10,3
              |10,5
              |6,10
              |9,10
              |0,2
              |0,5
              |0,0
              |0,1
             |];

num_points = 44;
