benchmark_instances/lp_benchmark_instances/benchmark_instance_10-1.lp
% Input: sequence of points
point(2,1).
point(5,1).
point(8,1).
point(2,2).
point(6,2).
point(3,3).
point(5,3).
point(6,3).
point(7,3).
point(8,3).
point(1,4).
point(5,4).
point(7,4).
point(8,4).
point(1,5).
point(3,5).
point(5,5).
point(6,5).
point(7,5).
point(8,5).
point(2,6).
point(3,6).
point(4,6).
point(6,6).
point(2,7).
point(3,7).
point(8,8).
point(9,8).
point(3,9).
point(4,9).
point(6,9).
point(7,9).
point(3,0).
point(8,0).
point(10,0).
point(10,2).
point(10,3).
point(10,5).
point(6,10).
point(9,10).
point(0,2).
point(0,5).
point(0,0).
point(0,1).
